p ocr 1596 1542 3137
1 2407
1 2605
2 2407
3 2407
4 2407
5 2407
6 2407
7 2407
8 2407
9 2407
10 2407
11 2407
12 2407
13 2407
14 2407
15 2407
16 2407
17 2407
18 2407
19 2407
20 2407
21 2407
22 2407
23 2407
24 2407
25 2407
26 2407
27 2407
28 2407
29 2407
30 2407
31 2407
32 2407
33 2407
34 2407
35 2407
36 2407
37 2407
38 2407
39 2407
40 2407
41 2407
42 2407
43 2407
44 2407
45 2407
46 2407
47 2407
48 2407
49 2407
50 2407
51 2407
52 2407
53 2407
54 2407
55 2407
56 2407
57 2407
58 2407
59 2407
60 2407
61 2407
62 2407
63 2407
64 2407
65 2407
66 2407
67 2407
68 2407
69 2407
70 2407
71 2407
72 2407
73 2407
74 2407
75 2407
76 2407
77 2407
78 2407
79 2407
80 2407
81 2407
82 2407
83 2407
84 2407
85 2407
86 2407
87 2407
88 2407
89 2407
90 2407
91 2407
92 2407
93 2407
94 2407
95 2407
96 2407
97 2407
98 2407
99 2407
100 2407
101 2407
102 2407
103 2407
104 2407
105 2407
106 2407
107 2407
108 2407
109 2407
110 2407
111 2407
112 2407
113 2407
114 2407
115 2407
116 2407
117 2407
118 2407
119 2407
120 2407
121 2407
122 2407
123 2407
124 2407
125 2407
126 2407
127 2407
128 2407
129 2407
130 2407
131 2407
132 2407
133 2407
134 2407
135 2407
136 2407
137 2407
138 2407
139 2407
140 2407
141 2407
142 2407
143 2407
144 2407
145 2407
146 2407
147 2407
148 2407
149 2407
150 2407
151 2407
152 2407
153 2407
154 2407
155 2407
156 2407
157 2407
158 2407
159 2407
160 2407
161 2407
162 2407
163 2407
164 2407
165 2407
166 2407
167 2407
168 2407
169 2407
170 2407
171 2407
172 2407
173 2407
174 2407
175 2407
176 2407
177 2407
178 2407
179 2407
180 2407
181 2407
182 2407
183 2407
184 2407
185 2407
186 2407
187 2407
188 2407
189 2407
190 2407
191 2407
192 2407
193 2407
194 2407
195 2407
196 2407
197 2407
198 2407
199 2407
200 2407
201 2407
202 2407
203 2407
204 2407
205 2407
206 2407
207 2407
208 2407
209 2407
210 2407
211 2407
212 2407
213 2407
214 2407
215 2407
216 2407
217 2407
218 2407
219 2407
220 2407
221 2407
222 2407
223 2407
224 2407
225 2407
226 2407
227 2407
228 2407
229 2407
230 2407
231 2407
232 2407
233 2407
234 2407
235 2407
236 2407
237 2407
238 2407
239 2407
240 2407
241 2407
242 2407
243 2407
244 2407
245 2407
246 2407
247 2407
248 2407
249 2407
250 2407
251 2407
252 2407
253 2407
254 2407
255 2407
256 2407
257 2407
258 2407
259 2407
260 2407
261 2407
262 2407
263 2407
264 2407
265 2407
266 2407
267 2407
268 2407
269 2407
270 2407
271 2407
272 2407
273 2407
274 2407
275 2407
276 2407
277 2407
278 2407
279 2407
280 2407
281 2407
282 2407
283 2407
284 2407
285 2407
286 2407
287 2407
288 2407
289 2407
290 2407
291 2407
292 2407
293 2407
294 2407
295 2407
296 2407
297 2407
298 2407
299 2407
300 2407
301 2407
302 2407
303 2407
304 2407
305 2407
306 2407
307 2407
308 2407
309 2407
310 2407
311 2407
312 2407
313 2407
314 2407
315 2407
316 2407
317 2407
318 2407
319 2407
320 2407
321 2407
322 2407
323 2407
324 2407
325 2407
326 2407
327 2407
328 2407
329 2407
330 2407
331 2407
332 2407
333 2407
334 2407
335 2407
336 2407
337 2407
338 2407
339 2407
340 2407
341 2407
342 2407
343 2407
344 2407
345 2407
346 2407
347 2407
348 2407
349 2407
350 2407
351 2407
352 2407
353 2407
354 2407
355 2407
356 2407
357 2407
358 2407
359 2407
360 2407
361 2407
362 2407
363 2407
364 2407
365 2407
366 2407
367 2407
368 2407
369 2407
370 2407
371 2407
372 2407
373 2407
374 2407
375 2407
376 2407
377 2407
378 2407
379 2407
380 2407
381 2407
382 2407
383 2407
384 2407
385 2407
386 2407
387 2407
388 2407
389 2407
390 2407
391 2407
392 2407
393 2407
394 2407
395 2407
396 2407
397 2407
398 2407
399 2407
400 2407
401 2407
402 2407
403 2407
404 2407
405 2407
406 2407
407 2407
408 2407
409 2407
410 2407
411 2407
412 2407
413 2407
414 2407
415 2407
416 2407
417 2407
418 2407
419 2407
420 2407
421 2407
422 2407
423 2407
424 2407
425 2407
426 2407
427 2407
428 2407
429 2407
430 2407
431 2407
432 2407
433 2407
434 2407
435 2407
436 2407
437 2407
438 2407
439 2407
440 2407
441 2407
442 2407
443 2407
444 2407
445 2407
446 2407
447 2407
448 2407
449 2407
450 2407
451 2407
452 2407
453 2407
454 2407
455 2407
456 2407
457 2407
458 2407
459 2407
460 2407
461 2407
462 2407
463 2407
464 2407
465 2407
466 2407
467 2407
468 2407
469 2407
470 2407
471 2407
472 2407
473 2407
474 2407
475 2407
476 2407
477 2407
478 2407
479 2407
480 2407
481 2407
482 2407
483 2407
484 2407
485 2407
486 2407
487 2407
488 2407
489 2407
490 2407
491 2407
492 2407
493 2407
494 2407
495 2407
496 2407
497 2407
498 2407
499 2407
500 2407
501 2407
502 2407
503 2407
504 2407
505 2407
506 2407
507 2407
508 2407
509 2407
510 2407
511 2407
512 2407
513 2407
514 2407
515 2407
516 2407
517 2407
518 2407
519 2407
520 2407
521 2407
522 2407
523 2407
524 2407
525 2407
526 2407
527 2407
528 2407
529 2407
530 2407
531 2407
532 2407
533 2407
534 2407
535 2407
536 2407
537 2407
538 2407
539 2407
540 2407
541 2407
542 2407
543 2407
544 2407
545 2407
546 2407
547 2407
548 2407
549 2407
550 2407
551 2407
552 2407
553 2407
554 2407
555 2407
556 2407
557 2407
558 2407
559 2407
560 2407
561 2407
562 2407
563 2407
564 2407
565 2407
566 2407
567 2407
568 2407
569 2407
570 2407
571 2407
572 2407
573 2407
574 2407
575 2407
576 2407
577 2407
578 2407
579 2407
580 2407
581 2407
582 2407
583 2407
584 2407
585 2407
586 2407
587 2407
588 2407
589 2407
590 2407
591 2407
592 2407
593 2407
594 2407
595 2407
596 2407
597 2407
598 2407
599 2407
600 2407
601 2407
602 2407
603 2407
604 2407
605 2407
606 2407
607 2407
608 2407
609 2407
610 2407
611 2407
612 2407
613 2407
614 2407
615 2407
616 2407
617 2407
618 2407
619 2407
620 2407
621 2407
622 2407
623 2407
624 2407
625 2407
626 2407
627 2407
628 2407
629 2407
630 2407
631 2407
632 2407
633 2407
634 2407
635 2407
636 2407
637 2407
638 2407
639 2407
640 2407
641 2407
642 2407
643 2407
644 2407
645 2407
646 2407
647 2407
648 2407
649 2407
650 2407
651 2407
652 2407
653 2407
654 2407
655 2407
656 2407
657 2407
658 2407
659 2407
660 2407
661 2407
662 2407
663 2407
664 2407
665 2407
666 2407
667 2407
668 2407
669 2407
670 2407
671 2407
672 2407
673 2407
674 2407
675 2407
676 2407
677 2407
678 2407
679 2407
680 2407
681 2407
682 2407
683 2407
684 2407
685 2407
686 2407
687 2407
688 2407
689 2407
690 2407
691 2407
692 2407
693 2407
694 2407
695 2407
696 2407
697 2407
698 2407
699 2407
700 2407
701 2407
702 2407
703 2407
704 2407
705 2407
706 2407
707 2407
708 2407
709 2407
710 2407
711 2407
712 2407
713 2407
714 2407
715 2407
716 2407
717 2407
718 2407
719 2407
720 2407
721 2407
722 2407
723 2407
724 2407
725 2407
726 2407
727 2407
728 2407
729 2407
730 2407
731 2407
732 2407
733 2407
734 2407
735 2407
736 2407
737 2407
738 2407
739 2407
740 2407
741 2407
742 2407
743 2407
744 2407
745 2407
746 2407
747 2407
748 2407
749 2407
750 2407
751 2407
752 2407
753 2407
754 2407
755 2407
756 2407
757 2407
758 2407
759 2407
760 2407
761 2407
762 2407
763 2407
764 2407
765 2407
766 2407
767 2407
768 2407
769 2407
770 2407
771 2407
772 2407
773 2407
774 2407
775 2407
776 2407
777 2407
778 2407
779 2407
780 2407
781 2407
782 2407
783 2407
784 2407
785 2407
786 2407
787 2407
788 2407
789 2407
790 2407
791 2407
792 2407
793 2407
794 2407
795 2407
796 2407
797 2407
798 2407
799 2407
800 2407
801 2407
802 2407
803 2407
804 2407
805 2407
806 2407
807 2407
808 2407
809 2407
810 2407
811 2407
812 2407
813 2407
814 2407
815 2407
816 2407
817 2407
818 2407
819 2407
820 2407
821 2407
822 2407
823 2407
824 2407
825 2407
826 2407
827 2407
828 2407
829 2407
830 2407
831 2407
832 2407
833 2407
834 2407
835 2407
836 2407
837 2407
838 2407
839 2407
840 2407
841 2407
842 2407
843 2407
844 2407
845 2407
846 2407
847 2407
848 2407
849 2407
850 2407
851 2407
852 2407
853 2407
854 2407
855 2407
856 2407
857 2407
858 2407
859 2407
860 2407
861 2407
862 2407
863 2407
864 2407
865 2407
866 2407
867 2407
868 2407
869 2407
870 2407
871 2407
872 2407
873 2407
874 2407
875 2407
876 2407
877 2407
878 2407
879 2407
880 2407
881 2407
882 2407
883 2407
884 2407
885 2407
886 2407
887 2407
888 2407
889 2407
890 2407
891 2407
892 2407
893 2407
894 2407
895 2407
896 2407
897 2407
898 2407
899 2407
900 2407
901 2407
902 2407
903 2407
904 2407
905 2407
906 2407
907 2407
908 2407
909 2407
910 2407
911 2407
912 2407
913 2407
914 2407
915 2407
916 2407
917 2407
918 2407
919 2407
920 2407
921 2407
922 2407
923 2407
924 2407
925 2407
926 2407
927 2407
928 2407
929 2407
930 2407
931 2407
932 2407
933 2407
934 2407
935 2407
936 2407
937 2407
938 2407
939 2407
940 2407
941 2407
942 2407
943 2407
944 2407
945 2407
946 2407
947 2407
948 2407
949 2407
950 2407
951 2407
952 2407
953 2407
954 2407
955 2407
956 2407
957 2407
958 2407
959 2407
960 2407
961 2407
962 2407
963 2407
964 2407
965 2407
966 2407
967 2407
968 2407
969 2407
970 2407
971 2407
972 2407
973 2407
974 2407
975 2407
976 2407
977 2407
978 2407
979 2407
980 2407
981 2407
982 2407
983 2407
984 2407
985 2407
986 2407
987 2407
988 2407
989 2407
990 2407
991 2407
992 2407
993 2407
994 2407
995 2407
996 2407
997 2407
998 2407
999 2407
1000 2407
1001 2407
1002 2407
1003 2407
1004 2407
1005 2407
1006 2407
1007 2407
1008 2407
1009 2407
1010 2407
1011 2407
1012 2407
1013 2407
1014 2407
1015 2407
1016 2407
1017 2407
1018 2407
1019 2407
1020 2407
1021 2407
1022 2407
1023 2407
1024 2407
1025 2407
1026 2407
1027 2407
1028 2407
1029 2407
1030 2407
1031 2407
1032 2407
1033 2407
1034 2407
1035 2407
1036 2407
1037 2407
1038 2407
1039 2407
1040 2407
1041 2407
1042 2407
1043 2407
1044 2407
1045 2407
1046 2407
1047 2407
1048 2407
1049 2407
1050 2407
1051 2407
1052 2407
1053 2407
1054 2407
1055 2407
1056 2407
1057 2407
1058 2407
1059 2407
1060 2407
1061 2407
1062 2407
1063 2407
1064 2407
1065 2407
1066 2407
1067 2407
1068 2407
1069 2407
1070 2407
1071 2407
1072 2407
1073 2407
1074 2407
1075 2407
1076 2407
1077 2407
1078 2407
1079 2407
1080 2407
1081 2407
1082 2407
1083 2407
1084 2407
1085 2407
1086 2407
1087 2407
1088 2407
1089 2407
1090 2407
1091 2407
1092 2407
1093 2407
1094 2407
1095 2407
1096 2407
1097 2407
1098 2407
1099 2407
1100 2407
1101 2407
1102 2407
1103 2407
1104 2407
1105 2407
1106 2407
1107 2407
1108 2407
1109 2407
1110 2407
1111 2407
1112 2407
1113 2407
1114 2407
1115 2407
1116 2407
1117 2407
1118 2407
1119 2407
1120 2407
1121 2407
1122 2407
1123 2407
1124 2407
1125 2407
1126 2407
1127 2407
1128 2407
1129 2407
1130 2407
1131 2407
1132 2407
1133 2407
1134 2407
1135 2407
1136 2407
1137 2407
1138 2407
1139 2407
1140 2407
1141 2407
1142 2407
1143 2407
1144 2407
1145 2407
1146 2407
1147 2407
1148 2407
1149 2407
1150 2407
1151 2407
1152 2407
1153 2407
1154 2407
1155 2407
1156 2407
1157 2407
1158 2407
1159 2407
1160 2407
1161 2407
1162 2407
1163 2407
1164 2407
1165 2407
1166 2407
1167 2407
1168 2407
1169 2407
1170 2407
1171 2407
1172 2407
1173 2407
1174 2407
1175 2407
1176 2407
1177 2407
1178 2407
1179 2407
1180 2407
1181 2407
1182 2407
1183 2407
1184 2407
1185 2407
1186 2407
1187 2407
1188 2407
1189 2407
1190 2407
1191 2407
1192 2407
1193 2407
1194 2407
1195 2407
1196 2407
1197 2407
1198 2407
1199 2407
1200 2407
1201 2407
1202 2407
1203 2407
1204 2407
1205 2407
1206 2407
1207 2407
1208 2407
1209 2407
1210 2407
1211 2407
1212 2407
1213 2407
1214 2407
1215 2407
1216 2407
1217 2407
1218 2407
1219 2407
1220 2407
1221 2407
1222 2407
1223 2407
1224 2407
1225 2407
1226 2407
1227 2407
1228 2407
1229 2407
1230 2407
1231 2407
1232 2407
1233 2407
1234 2407
1235 2407
1236 2407
1237 2407
1238 2407
1239 2407
1240 2407
1241 2407
1242 2407
1243 2407
1244 2407
1245 2407
1246 2407
1247 2407
1248 2407
1249 2407
1250 2407
1251 2407
1252 2407
1253 2407
1254 2407
1255 2407
1256 2407
1257 2407
1258 2407
1259 2407
1260 2407
1261 2407
1262 2407
1263 2407
1264 2407
1265 2407
1266 2407
1267 2407
1268 2407
1269 2407
1270 2407
1271 2407
1272 2407
1273 2407
1274 2407
1275 2407
1276 2407
1277 2407
1278 2407
1279 2407
1280 2407
1281 2407
1282 2407
1283 2407
1284 2407
1285 2407
1286 2407
1287 2407
1288 2407
1289 2407
1290 2407
1291 2407
1292 2407
1293 2407
1294 2407
1295 2407
1296 2407
1297 2407
1298 2407
1299 2407
1300 2407
1301 2407
1302 2407
1303 2407
1304 2407
1305 2407
1306 2407
1307 2407
1308 2407
1309 2407
1310 2407
1311 2407
1312 2407
1313 2407
1314 2407
1315 2407
1316 2407
1317 2407
1318 2407
1319 2407
1320 2407
1321 2407
1322 2407
1323 2407
1324 2407
1325 2407
1326 2407
1327 2407
1328 2407
1329 2407
1330 2407
1331 2407
1332 2407
1333 2407
1334 2407
1335 2407
1336 2407
1337 2407
1338 2407
1339 2407
1340 2407
1341 2407
1342 2407
1343 2407
1344 2407
1345 2407
1346 2407
1347 2407
1348 2407
1349 2407
1350 2407
1351 2407
1352 2407
1353 2407
1354 2407
1355 2407
1356 2407
1357 2407
1358 2407
1359 2407
1360 2407
1361 2407
1362 2407
1363 2407
1364 2407
1365 2407
1366 2407
1367 2407
1368 2407
1369 2407
1370 2407
1371 2407
1372 2407
1373 2407
1374 2407
1375 2407
1376 2407
1377 2407
1378 2407
1379 2407
1380 2407
1381 2407
1382 2407
1383 2407
1384 2407
1385 2407
1386 2407
1387 2407
1388 2407
1389 2407
1390 2407
1391 2407
1392 2407
1393 2407
1394 2407
1395 2407
1396 2407
1397 2407
1398 2407
1399 2407
1400 2407
1401 2407
1402 2407
1403 2407
1404 2407
1405 2407
1406 2407
1407 2407
1408 2407
1409 2407
1410 2407
1411 2407
1412 2407
1413 2407
1414 2407
1415 2407
1416 2407
1417 2407
1418 2407
1419 2407
1420 2407
1421 2407
1422 2407
1423 2407
1424 2407
1425 2407
1426 2407
1427 2407
1428 2407
1429 2407
1430 2407
1431 2407
1432 2407
1433 2407
1434 2407
1435 2407
1436 2407
1437 2407
1438 2407
1439 2407
1440 2407
1441 2407
1442 2407
1443 2407
1444 2407
1445 2407
1446 2407
1447 2407
1448 2407
1449 2407
1450 2407
1451 2407
1452 2407
1453 2407
1454 2407
1455 2407
1456 2407
1457 2407
1458 2407
1459 2407
1460 2407
1461 2407
1462 2407
1463 2407
1464 2407
1465 2407
1466 2407
1467 2407
1468 2407
1469 2407
1470 2407
1471 2407
1472 2407
1473 2407
1474 2407
1475 2407
1476 2407
1477 2407
1478 2407
1479 2407
1480 2407
1481 2407
1482 2407
1483 2407
1484 2407
1485 2407
1486 2407
1487 2407
1488 2407
1489 2407
1490 2407
1491 2407
1492 2407
1493 2407
1494 2407
1495 2407
1496 2407
1497 2407
1498 2407
1499 2407
1500 2407
1501 2407
1502 2407
1503 2407
1504 2407
1505 2407
1506 2407
1507 2407
1508 2407
1509 2407
1510 2407
1511 2407
1512 2407
1513 2407
1514 2407
1515 2407
1516 2407
1517 2407
1518 2407
1519 2407
1520 2407
1521 2407
1522 2407
1523 2407
1524 2407
1525 2407
1526 2407
1527 2407
1528 2407
1529 2407
1530 2407
1531 2407
1532 2407
1533 2407
1534 2407
1535 2407
1536 2407
1537 2407
1538 2407
1539 2407
1540 2407
1541 1597
1541 1598
1541 1599
1541 1600
1541 1601
1541 1602
1541 1603
1541 1604
1541 1605
1541 1606
1541 1607
1541 1608
1541 1609
1541 1610
1541 1611
1541 1612
1541 1613
1541 1614
1541 1615
1541 1616
1541 1617
1541 1618
1541 1619
1541 1620
1541 1621
1541 1622
1541 1623
1541 1624
1541 1625
1541 1626
1541 1627
1541 1628
1541 1629
1541 1630
1541 1631
1541 1632
1541 1633
1541 1634
1541 1635
1541 1636
1541 1637
1541 1638
1541 1639
1541 1640
1541 1641
1541 1642
1541 1643
1541 1644
1541 1645
1541 1646
1541 1647
1541 1648
1541 1649
1541 1650
1541 1651
1541 1652
1541 1653
1541 1654
1541 1655
1541 1656
1541 1657
1541 1658
1541 1659
1541 1660
1541 1661
1541 1662
1541 1663
1541 1664
1541 1665
1541 1666
1541 1667
1541 1668
1541 1669
1541 1670
1541 1671
1541 1672
1541 1673
1541 1674
1541 1675
1541 1676
1541 1677
1541 1678
1541 1679
1541 1680
1541 1681
1541 1682
1541 1683
1541 1684
1541 1685
1541 1686
1541 1687
1541 1688
1541 1689
1541 1690
1541 1691
1541 1692
1541 1693
1541 1694
1541 1695
1541 1696
1541 1697
1541 1698
1541 1699
1541 1700
1541 1701
1541 1702
1541 1703
1541 1704
1541 1705
1541 1706
1541 1707
1541 1708
1541 1709
1541 1710
1541 1711
1541 1712
1541 1713
1541 1714
1541 1715
1541 1716
1541 1717
1541 1718
1541 1719
1541 1720
1541 1721
1541 1722
1541 1723
1541 1724
1541 1725
1541 1726
1541 1727
1541 1728
1541 1729
1541 1730
1541 1731
1541 1732
1541 1733
1541 1734
1541 1735
1541 1736
1541 1737
1541 1738
1541 1739
1541 1740
1541 1741
1541 1742
1541 1743
1541 1744
1541 1745
1541 1746
1541 1747
1541 1748
1541 1749
1541 1750
1541 1751
1541 1752
1541 1753
1541 1754
1541 1755
1541 1756
1541 1757
1541 1758
1541 1759
1541 1760
1541 1761
1541 1762
1541 1763
1541 1764
1541 1765
1541 1766
1541 1767
1541 1768
1541 1769
1541 1770
1541 1771
1541 1772
1541 1773
1541 1774
1541 1775
1541 1776
1541 1777
1541 1778
1541 1779
1541 1780
1541 1781
1541 1782
1541 1783
1541 1784
1541 1785
1541 1786
1541 1787
1541 1788
1541 1789
1541 1790
1541 1791
1541 1792
1541 1793
1541 1794
1541 1795
1541 1796
1541 1797
1541 1798
1541 1799
1541 1800
1541 1801
1541 1802
1541 1803
1541 1804
1541 1805
1541 1806
1541 1807
1541 1808
1541 1809
1541 1810
1541 1811
1541 1812
1541 1813
1541 1814
1541 1815
1541 1816
1541 1817
1541 1818
1541 1819
1541 1820
1541 1821
1541 1822
1541 1823
1541 1824
1541 1825
1541 1826
1541 1827
1541 1828
1541 1829
1541 1830
1541 1831
1541 1832
1541 1833
1541 1834
1541 1835
1541 1836
1541 1837
1541 1838
1541 1839
1541 1840
1541 1841
1541 1842
1541 1843
1541 1844
1541 1845
1541 1846
1541 1847
1541 1848
1541 1849
1541 1850
1541 1851
1541 1852
1541 1853
1541 1854
1541 1855
1541 1856
1541 1857
1541 1858
1541 1859
1541 1860
1541 1861
1541 1862
1541 1863
1541 1864
1541 1865
1541 1866
1541 1867
1541 1868
1541 1869
1541 1870
1541 1871
1541 1872
1541 1873
1541 1874
1541 1875
1541 1876
1541 1877
1541 1878
1541 1879
1541 1880
1541 1881
1541 1882
1541 1883
1541 1884
1541 1885
1541 1886
1541 1887
1541 1888
1541 1889
1541 1890
1541 1891
1541 1892
1541 1893
1541 1894
1541 1895
1541 1896
1541 1897
1541 1898
1541 1899
1541 1900
1541 1901
1541 1902
1541 1903
1541 1904
1541 1905
1541 1906
1541 1907
1541 1908
1541 1909
1541 1910
1541 1911
1541 1912
1541 1913
1541 1914
1541 1915
1541 1916
1541 1917
1541 1918
1541 1919
1541 1920
1541 1921
1541 1922
1541 1923
1541 1924
1541 1925
1541 1926
1541 1927
1541 1928
1541 1929
1541 1930
1541 1931
1541 1932
1541 1933
1541 1934
1541 1935
1541 1936
1541 1937
1541 1938
1541 1939
1541 1940
1541 1941
1541 1942
1541 1943
1541 1944
1541 1945
1541 1946
1541 1947
1541 1948
1541 1949
1541 1950
1541 1951
1541 1952
1541 1953
1541 1954
1541 1955
1541 1956
1541 1957
1541 1958
1541 1959
1541 1960
1541 1961
1541 1962
1541 1963
1541 1964
1541 1965
1541 1966
1541 1967
1541 1968
1541 1969
1541 1970
1541 1971
1541 1972
1541 1973
1541 1974
1541 1975
1541 1976
1541 1977
1541 1978
1541 1979
1541 1980
1541 1981
1541 1982
1541 1983
1541 1984
1541 1985
1541 1986
1541 1987
1541 1988
1541 1989
1541 1990
1541 1991
1541 1992
1541 1993
1541 1994
1541 1995
1541 1996
1541 1997
1541 1998
1541 1999
1541 2000
1541 2001
1541 2002
1541 2003
1541 2004
1541 2005
1541 2006
1541 2007
1541 2008
1541 2009
1541 2010
1541 2011
1541 2012
1541 2013
1541 2014
1541 2015
1541 2016
1541 2017
1541 2018
1541 2019
1541 2020
1541 2021
1541 2022
1541 2023
1541 2024
1541 2025
1541 2026
1541 2027
1541 2028
1541 2029
1541 2030
1541 2031
1541 2032
1541 2033
1541 2034
1541 2035
1541 2036
1541 2037
1541 2038
1541 2039
1541 2040
1541 2041
1541 2042
1541 2043
1541 2044
1541 2045
1541 2046
1541 2047
1541 2048
1541 2049
1541 2050
1541 2051
1541 2052
1541 2053
1541 2054
1541 2055
1541 2056
1541 2057
1541 2058
1541 2059
1541 2060
1541 2061
1541 2062
1541 2063
1541 2064
1541 2065
1541 2066
1541 2067
1541 2068
1541 2069
1541 2070
1541 2071
1541 2072
1541 2073
1541 2074
1541 2075
1541 2076
1541 2077
1541 2078
1541 2079
1541 2080
1541 2081
1541 2082
1541 2083
1541 2084
1541 2085
1541 2086
1541 2087
1541 2088
1541 2089
1541 2090
1541 2091
1541 2092
1541 2093
1541 2094
1541 2095
1541 2096
1541 2097
1541 2098
1541 2099
1541 2100
1541 2101
1541 2102
1541 2103
1541 2104
1541 2105
1541 2106
1541 2107
1541 2108
1541 2109
1541 2110
1541 2111
1541 2112
1541 2113
1541 2114
1541 2115
1541 2116
1541 2117
1541 2118
1541 2119
1541 2120
1541 2121
1541 2122
1541 2123
1541 2124
1541 2125
1541 2126
1541 2127
1541 2128
1541 2129
1541 2130
1541 2131
1541 2132
1541 2133
1541 2134
1541 2135
1541 2136
1541 2137
1541 2138
1541 2139
1541 2140
1541 2141
1541 2142
1541 2143
1541 2144
1541 2145
1541 2146
1541 2147
1541 2148
1541 2149
1541 2150
1541 2151
1541 2152
1541 2153
1541 2154
1541 2155
1541 2156
1541 2157
1541 2158
1541 2159
1541 2160
1541 2161
1541 2162
1541 2163
1541 2164
1541 2165
1541 2166
1541 2167
1541 2168
1541 2169
1541 2170
1541 2171
1541 2172
1541 2173
1541 2174
1541 2175
1541 2176
1541 2177
1541 2178
1541 2179
1541 2180
1541 2181
1541 2182
1541 2183
1541 2184
1541 2185
1541 2186
1541 2187
1541 2188
1541 2189
1541 2190
1541 2191
1541 2192
1541 2193
1541 2194
1541 2195
1541 2196
1541 2197
1541 2198
1541 2199
1541 2200
1541 2201
1541 2202
1541 2203
1541 2204
1541 2205
1541 2206
1541 2207
1541 2208
1541 2209
1541 2210
1541 2211
1541 2212
1541 2213
1541 2214
1541 2215
1541 2216
1541 2217
1541 2218
1541 2219
1541 2220
1541 2221
1541 2222
1541 2223
1541 2224
1541 2225
1541 2226
1541 2227
1541 2228
1541 2229
1541 2230
1541 2231
1541 2232
1541 2233
1541 2234
1541 2235
1541 2236
1541 2237
1541 2238
1541 2239
1541 2240
1541 2241
1541 2242
1541 2243
1541 2244
1541 2245
1541 2246
1541 2247
1541 2248
1541 2249
1541 2250
1541 2251
1541 2252
1541 2253
1541 2254
1541 2255
1541 2256
1541 2257
1541 2258
1541 2259
1541 2260
1541 2261
1541 2262
1541 2263
1541 2264
1541 2265
1541 2266
1541 2267
1541 2268
1541 2269
1541 2270
1541 2271
1541 2272
1541 2273
1541 2274
1541 2275
1541 2276
1541 2277
1541 2278
1541 2279
1541 2280
1541 2281
1541 2282
1541 2283
1541 2284
1541 2285
1541 2286
1541 2287
1541 2288
1541 2289
1541 2290
1541 2291
1541 2292
1541 2293
1541 2294
1541 2295
1541 2296
1541 2297
1541 2298
1541 2299
1541 2300
1541 2301
1541 2302
1541 2303
1541 2304
1541 2305
1541 2306
1541 2307
1541 2308
1541 2309
1541 2310
1541 2311
1541 2312
1541 2313
1541 2314
1541 2315
1541 2316
1541 2317
1541 2318
1541 2319
1541 2320
1541 2321
1541 2322
1541 2323
1541 2324
1541 2325
1541 2326
1541 2327
1541 2328
1541 2329
1541 2330
1541 2331
1541 2332
1541 2333
1541 2334
1541 2335
1541 2336
1541 2337
1541 2338
1541 2339
1541 2340
1541 2341
1541 2342
1541 2343
1541 2344
1541 2345
1541 2346
1541 2347
1541 2348
1541 2349
1541 2350
1541 2351
1541 2352
1541 2353
1541 2354
1541 2355
1541 2356
1541 2357
1541 2358
1541 2359
1541 2360
1541 2361
1541 2362
1541 2363
1541 2364
1541 2365
1541 2366
1541 2367
1541 2368
1541 2369
1541 2370
1541 2371
1541 2372
1541 2373
1541 2374
1541 2375
1541 2376
1541 2377
1541 2378
1541 2379
1541 2380
1541 2381
1541 2382
1541 2383
1541 2384
1541 2385
1541 2386
1541 2387
1541 2388
1541 2389
1541 2390
1541 2391
1541 2392
1541 2393
1541 2394
1541 2395
1541 2396
1541 2397
1541 2398
1541 2399
1541 2400
1541 2401
1541 2402
1541 2403
1541 2404
1541 2405
1541 2406
1541 2407
1541 2408
1541 2409
1541 2410
1541 2411
1541 2412
1541 2413
1541 2414
1541 2415
1541 2416
1541 2417
1541 2418
1541 2419
1541 2420
1541 2421
1541 2422
1541 2423
1541 2424
1541 2425
1541 2426
1541 2427
1541 2428
1541 2429
1541 2430
1541 2431
1541 2432
1541 2433
1541 2434
1541 2435
1541 2436
1541 2437
1541 2438
1541 2439
1541 2440
1541 2441
1541 2442
1541 2443
1541 2444
1541 2445
1541 2446
1541 2447
1541 2448
1541 2449
1541 2450
1541 2451
1541 2452
1541 2453
1541 2454
1541 2455
1541 2456
1541 2457
1541 2458
1541 2459
1541 2460
1541 2461
1541 2462
1541 2463
1541 2464
1541 2465
1541 2466
1541 2467
1541 2468
1541 2469
1541 2470
1541 2471
1541 2472
1541 2473
1541 2474
1541 2475
1541 2476
1541 2477
1541 2478
1541 2479
1541 2480
1541 2481
1541 2482
1541 2483
1541 2484
1541 2485
1541 2486
1541 2487
1541 2488
1541 2489
1541 2490
1541 2491
1541 2492
1541 2493
1541 2494
1541 2495
1541 2496
1541 2497
1541 2498
1541 2499
1541 2500
1541 2501
1541 2502
1541 2503
1541 2504
1541 2505
1541 2506
1541 2507
1541 2508
1541 2509
1541 2510
1541 2511
1541 2512
1541 2513
1541 2514
1541 2515
1541 2516
1541 2517
1541 2518
1541 2519
1541 2520
1541 2521
1541 2522
1541 2523
1541 2524
1541 2525
1541 2526
1541 2527
1541 2528
1541 2529
1541 2530
1541 2531
1541 2532
1541 2533
1541 2534
1541 2535
1541 2536
1541 2537
1541 2538
1541 2539
1541 2540
1541 2541
1541 2542
1541 2543
1541 2544
1541 2545
1541 2546
1541 2547
1541 2548
1541 2549
1541 2550
1541 2551
1541 2552
1541 2553
1541 2554
1541 2555
1541 2556
1541 2557
1541 2558
1541 2559
1541 2560
1541 2561
1541 2562
1541 2563
1541 2564
1541 2565
1541 2566
1541 2567
1541 2568
1541 2569
1541 2570
1541 2571
1541 2572
1541 2573
1541 2574
1541 2575
1541 2576
1541 2577
1541 2578
1541 2579
1541 2580
1541 2581
1541 2582
1541 2583
1541 2584
1541 2585
1541 2586
1541 2587
1541 2588
1541 2589
1541 2590
1541 2591
1541 2592
1541 2593
1541 2594
1541 2595
1541 2596
1541 2597
1541 2598
1541 2599
1541 2600
1541 2601
1541 2602
1541 2603
1541 2604
1541 2606
1541 2607
1541 2608
1541 2609
1541 2610
1541 2611
1541 2612
1541 2613
1541 2614
1541 2615
1541 2616
1541 2617
1541 2618
1541 2619
1541 2620
1541 2621
1541 2622
1541 2623
1541 2624
1541 2625
1541 2626
1541 2627
1541 2628
1541 2629
1541 2630
1541 2631
1541 2632
1541 2633
1541 2634
1541 2635
1541 2636
1541 2637
1541 2638
1541 2639
1541 2640
1541 2641
1541 2642
1541 2643
1541 2644
1541 2645
1541 2646
1541 2647
1541 2648
1541 2649
1541 2650
1541 2651
1541 2652
1541 2653
1541 2654
1541 2655
1541 2656
1541 2657
1541 2658
1541 2659
1541 2660
1541 2661
1541 2662
1541 2663
1541 2664
1541 2665
1541 2666
1541 2667
1541 2668
1541 2669
1541 2670
1541 2671
1541 2672
1541 2673
1541 2674
1541 2675
1541 2676
1541 2677
1541 2678
1541 2679
1541 2680
1541 2681
1541 2682
1541 2683
1541 2684
1541 2685
1541 2686
1541 2687
1541 2688
1541 2689
1541 2690
1541 2691
1541 2692
1541 2693
1541 2694
1541 2695
1541 2696
1541 2697
1541 2698
1541 2699
1541 2700
1541 2701
1541 2702
1541 2703
1541 2704
1541 2705
1541 2706
1541 2707
1541 2708
1541 2709
1541 2710
1541 2711
1541 2712
1541 2713
1541 2714
1541 2715
1541 2716
1541 2717
1541 2718
1541 2719
1541 2720
1541 2721
1541 2722
1541 2723
1541 2724
1541 2725
1541 2726
1541 2727
1541 2728
1541 2729
1541 2730
1541 2731
1541 2732
1541 2733
1541 2734
1541 2735
1541 2736
1541 2737
1541 2738
1541 2739
1541 2740
1541 2741
1541 2742
1541 2743
1541 2744
1541 2745
1541 2746
1541 2747
1541 2748
1541 2749
1541 2750
1541 2751
1541 2752
1541 2753
1541 2754
1541 2755
1541 2756
1541 2757
1541 2758
1541 2759
1541 2760
1541 2761
1541 2762
1541 2763
1541 2764
1541 2765
1541 2766
1541 2767
1541 2768
1541 2769
1541 2770
1541 2771
1541 2772
1541 2773
1541 2774
1541 2775
1541 2776
1541 2777
1541 2778
1541 2779
1541 2780
1541 2781
1541 2782
1541 2783
1541 2784
1541 2785
1541 2786
1541 2787
1541 2788
1541 2789
1541 2790
1541 2791
1541 2792
1541 2793
1541 2794
1541 2795
1541 2796
1541 2797
1541 2798
1541 2799
1541 2800
1541 2801
1541 2802
1541 2803
1541 2804
1541 2805
1541 2806
1541 2807
1541 2808
1541 2809
1541 2810
1541 2811
1541 2812
1541 2813
1541 2814
1541 2815
1541 2816
1541 2817
1541 2818
1541 2819
1541 2820
1541 2821
1541 2822
1541 2823
1541 2824
1541 2825
1541 2826
1541 2827
1541 2828
1541 2829
1541 2830
1541 2831
1541 2832
1541 2833
1541 2834
1541 2835
1541 2836
1541 2837
1541 2838
1541 2839
1541 2840
1541 2841
1541 2842
1541 2843
1541 2844
1541 2845
1541 2846
1541 2847
1541 2848
1541 2849
1541 2850
1541 2851
1541 2852
1541 2853
1541 2854
1541 2855
1541 2856
1541 2857
1541 2858
1541 2859
1541 2860
1541 2861
1541 2862
1541 2863
1541 2864
1541 2865
1541 2866
1541 2867
1541 2868
1541 2869
1541 2870
1541 2871
1541 2872
1541 2873
1541 2874
1541 2875
1541 2876
1541 2877
1541 2878
1541 2879
1541 2880
1541 2881
1541 2882
1541 2883
1541 2884
1541 2885
1541 2886
1541 2887
1541 2888
1541 2889
1541 2890
1541 2891
1541 2892
1541 2893
1541 2894
1541 2895
1541 2896
1541 2897
1541 2898
1541 2899
1541 2900
1541 2901
1541 2902
1541 2903
1541 2904
1541 2905
1541 2906
1541 2907
1541 2908
1541 2909
1541 2910
1541 2911
1541 2912
1541 2913
1541 2914
1541 2915
1541 2916
1541 2917
1541 2918
1541 2919
1541 2920
1541 2921
1541 2922
1541 2923
1541 2924
1541 2925
1541 2926
1541 2927
1541 2928
1541 2929
1541 2930
1541 2931
1541 2932
1541 2933
1541 2934
1541 2935
1541 2936
1541 2937
1541 2938
1541 2939
1541 2940
1541 2941
1541 2942
1541 2943
1541 2944
1541 2945
1541 2946
1541 2947
1541 2948
1541 2949
1541 2950
1541 2951
1541 2952
1541 2953
1541 2954
1541 2955
1541 2956
1541 2957
1541 2958
1541 2959
1541 2960
1541 2961
1541 2962
1541 2963
1541 2964
1541 2965
1541 2966
1541 2967
1541 2968
1541 2969
1541 2970
1541 2971
1541 2972
1541 2973
1541 2974
1541 2975
1541 2976
1541 2977
1541 2978
1541 2979
1541 2980
1541 2981
1541 2982
1541 2983
1541 2984
1541 2985
1541 2986
1541 2987
1541 2988
1541 2989
1541 2990
1541 2991
1541 2992
1541 2993
1541 2994
1541 2995
1541 2996
1541 2997
1541 2998
1541 2999
1541 3000
1541 3001
1541 3002
1541 3003
1541 3004
1541 3005
1541 3006
1541 3007
1541 3008
1541 3009
1541 3010
1541 3011
1541 3012
1541 3013
1541 3014
1541 3015
1541 3016
1541 3017
1541 3018
1541 3019
1541 3020
1541 3021
1541 3022
1541 3023
1541 3024
1541 3025
1541 3026
1541 3027
1541 3028
1541 3029
1541 3030
1541 3031
1541 3032
1541 3033
1541 3034
1541 3035
1541 3036
1541 3037
1541 3038
1541 3039
1541 3040
1541 3041
1541 3042
1541 3043
1541 3044
1541 3045
1541 3046
1541 3047
1541 3048
1541 3049
1541 3050
1541 3051
1541 3052
1541 3053
1541 3054
1541 3055
1541 3056
1541 3057
1541 3058
1541 3059
1541 3060
1541 3061
1541 3062
1541 3063
1541 3064
1541 3065
1541 3066
1541 3067
1541 3068
1541 3069
1541 3070
1541 3071
1541 3072
1541 3073
1541 3074
1541 3075
1541 3076
1541 3077
1541 3078
1541 3079
1541 3080
1541 3081
1541 3082
1541 3083
1541 3084
1541 3085
1541 3086
1541 3087
1541 3088
1541 3089
1541 3090
1541 3091
1541 3092
1541 3093
1541 3094
1541 3095
1541 3096
1541 3097
1541 3098
1541 3099
1541 3100
1541 3101
1541 3102
1541 3103
1541 3104
1541 3105
1541 3106
1541 3107
1541 3108
1541 3109
1541 3110
1541 3111
1541 3112
1541 3113
1541 3114
1541 3115
1541 3116
1541 3117
1541 3118
1541 3119
1541 3120
1541 3121
1541 3122
1541 3123
1541 3124
1541 3125
1541 3126
1541 3127
1541 3128
1541 3129
1541 3130
1541 3131
1541 3132
1541 3133
1541 3134
1541 3135
1541 3136
1541 3137
1541 3138
1542 2605
1543 2605
1544 2605
1545 2605
1546 2605
1547 2605
1548 2605
1549 2605
1550 2605
1551 2605
1552 2605
1553 2605
1554 2605
1555 2605
1556 2605
1557 2605
1558 2605
1559 2605
1560 2605
1561 2605
1562 2605
1563 2605
1564 2605
1565 2605
1566 2605
1567 2605
1568 2605
1569 2605
1570 2605
1571 2605
1572 2605
1573 2605
1574 2605
1575 2605
1576 2605
1577 2605
1578 2605
1579 2605
1580 2605
1581 2605
1582 2605
1583 2605
1584 2605
1585 2605
1586 2605
1587 2605
1588 2605
1589 2605
1590 2605
1591 2605
1592 2605
1593 2605
1594 2605
1595 2605
1596 2605
